# Objective value = -5.1972351844036355e+00
X_1 8.8200284197678712e+01
X_2 2.9117612057818434e+01
X_3 -2.0026452652437690e+00
X_4 -2.2785901480564363e+00
X_5 -5.1972351844036355e+00
alpha_1 -1
alpha_2 1
alpha_3 -1
alpha_4 -1
alpha_5 -1
alpha_6 -1
